(set-logic UF)
(declare-sort Set 0)
(declare-sort Elem 0)
(declare-fun member (Elem Set) Bool)
(declare-fun subset (Set Set) Bool)
(declare-fun seteq (Set Set) Bool)
(declare-fun union (Set Set) Set)
(declare-fun intersection (Set Set) Set)
(declare-fun difference (Set Set) Set)
(declare-fun a () Set)
(declare-fun b () Set)
(assert (not (or (not (member (choice ((?x Elem)) (not (or (not (member ?x (intersection a b))) (member ?x (difference a (difference a b)))))) (intersection a b))) (member (choice ((?x Elem)) (not (or (not (member ?x (intersection a b))) (member ?x (difference a (difference a b)))))) (difference a (difference a b))))))
(assert (or (not (member (choice ((?x Elem)) (not (or (not (member ?x (intersection a b))) (member ?x (difference a (difference a b)))))) (difference a b))) (and (member (choice ((?x Elem)) (not (or (not (member ?x (intersection a b))) (member ?x (difference a (difference a b)))))) a) (not (member (choice ((?x Elem)) (not (or (not (member ?x (intersection a b))) (member ?x (difference a (difference a b)))))) b))) (not (= (member (choice ((?x Elem)) (not (or (not (member ?x (intersection a b))) (member ?x (difference a (difference a b)))))) (difference a b)) (and (member (choice ((?x Elem)) (not (or (not (member ?x (intersection a b))) (member ?x (difference a (difference a b)))))) a) (not (member (choice ((?x Elem)) (not (or (not (member ?x (intersection a b))) (member ?x (difference a (difference a b)))))) b)))))))
(assert (= (member (choice ((?x Elem)) (not (or (not (member ?x (intersection a b))) (member ?x (difference a (difference a b)))))) (difference a b)) (and (member (choice ((?x Elem)) (not (or (not (member ?x (intersection a b))) (member ?x (difference a (difference a b)))))) a) (not (member (choice ((?x Elem)) (not (or (not (member ?x (intersection a b))) (member ?x (difference a (difference a b)))))) b)))))
(assert (or (not (member (choice ((?x Elem)) (not (or (not (member ?x (intersection a b))) (member ?x (difference a (difference a b)))))) b)) (not (and (member (choice ((?x Elem)) (not (or (not (member ?x (intersection a b))) (member ?x (difference a (difference a b)))))) a) (not (member (choice ((?x Elem)) (not (or (not (member ?x (intersection a b))) (member ?x (difference a (difference a b)))))) b))))))
(assert (or (member (choice ((?x Elem)) (not (or (not (member ?x (intersection a b))) (member ?x (difference a (difference a b)))))) (difference a b)) (and (member (choice ((?x Elem)) (not (or (not (member ?x (intersection a b))) (member ?x (difference a (difference a b)))))) a) (not (member (choice ((?x Elem)) (not (or (not (member ?x (intersection a b))) (member ?x (difference a (difference a b)))))) (difference a b)))) (not (member (choice ((?x Elem)) (not (or (not (member ?x (intersection a b))) (member ?x (difference a (difference a b)))))) a))))
(assert (or (member (choice ((?x Elem)) (not (or (not (member ?x (intersection a b))) (member ?x (difference a (difference a b)))))) b) (not (and (member (choice ((?x Elem)) (not (or (not (member ?x (intersection a b))) (member ?x (difference a (difference a b)))))) a) (member (choice ((?x Elem)) (not (or (not (member ?x (intersection a b))) (member ?x (difference a (difference a b)))))) b)))))
(assert (or (member (choice ((?x Elem)) (not (or (not (member ?x (intersection a b))) (member ?x (difference a (difference a b)))))) a) (not (and (member (choice ((?x Elem)) (not (or (not (member ?x (intersection a b))) (member ?x (difference a (difference a b)))))) a) (member (choice ((?x Elem)) (not (or (not (member ?x (intersection a b))) (member ?x (difference a (difference a b)))))) b)))))
(assert (or (member (choice ((?x Elem)) (not (or (not (member ?x (intersection a b))) (member ?x (difference a (difference a b)))))) (difference a (difference a b))) (not (and (member (choice ((?x Elem)) (not (or (not (member ?x (intersection a b))) (member ?x (difference a (difference a b)))))) a) (not (member (choice ((?x Elem)) (not (or (not (member ?x (intersection a b))) (member ?x (difference a (difference a b)))))) (difference a b))))) (not (= (member (choice ((?x Elem)) (not (or (not (member ?x (intersection a b))) (member ?x (difference a (difference a b)))))) (difference a (difference a b))) (and (member (choice ((?x Elem)) (not (or (not (member ?x (intersection a b))) (member ?x (difference a (difference a b)))))) a) (not (member (choice ((?x Elem)) (not (or (not (member ?x (intersection a b))) (member ?x (difference a (difference a b)))))) (difference a b))))))))
(assert (= (member (choice ((?x Elem)) (not (or (not (member ?x (intersection a b))) (member ?x (difference a (difference a b)))))) (difference a (difference a b))) (and (member (choice ((?x Elem)) (not (or (not (member ?x (intersection a b))) (member ?x (difference a (difference a b)))))) a) (not (member (choice ((?x Elem)) (not (or (not (member ?x (intersection a b))) (member ?x (difference a (difference a b)))))) (difference a b))))))
(assert (or (not (member (choice ((?x Elem)) (not (or (not (member ?x (intersection a b))) (member ?x (difference a (difference a b)))))) (intersection a b))) (and (member (choice ((?x Elem)) (not (or (not (member ?x (intersection a b))) (member ?x (difference a (difference a b)))))) a) (member (choice ((?x Elem)) (not (or (not (member ?x (intersection a b))) (member ?x (difference a (difference a b)))))) b)) (not (= (member (choice ((?x Elem)) (not (or (not (member ?x (intersection a b))) (member ?x (difference a (difference a b)))))) (intersection a b)) (and (member (choice ((?x Elem)) (not (or (not (member ?x (intersection a b))) (member ?x (difference a (difference a b)))))) a) (member (choice ((?x Elem)) (not (or (not (member ?x (intersection a b))) (member ?x (difference a (difference a b)))))) b))))))
(assert (= (member (choice ((?x Elem)) (not (or (not (member ?x (intersection a b))) (member ?x (difference a (difference a b)))))) (intersection a b)) (and (member (choice ((?x Elem)) (not (or (not (member ?x (intersection a b))) (member ?x (difference a (difference a b)))))) a) (member (choice ((?x Elem)) (not (or (not (member ?x (intersection a b))) (member ?x (difference a (difference a b)))))) b))))
(assert (or (or (not (member (choice ((?x Elem)) (not (or (not (member ?x (intersection a b))) (member ?x (difference a (difference a b)))))) (intersection a b))) (member (choice ((?x Elem)) (not (or (not (member ?x (intersection a b))) (member ?x (difference a (difference a b)))))) (difference a (difference a b)))) (not (member (choice ((?x Elem)) (not (or (not (member ?x (intersection a b))) (member ?x (difference a (difference a b)))))) (difference a (difference a b))))))
(assert (or (member (choice ((?x Elem)) (not (or (not (member ?x (intersection a b))) (member ?x (difference a (difference a b)))))) (intersection a b)) (or (not (member (choice ((?x Elem)) (not (or (not (member ?x (intersection a b))) (member ?x (difference a (difference a b)))))) (intersection a b))) (member (choice ((?x Elem)) (not (or (not (member ?x (intersection a b))) (member ?x (difference a (difference a b)))))) (difference a (difference a b))))))
(check-sat)
(exit)
